WARNING: for repeatability, setting FPU to use double precision
============================[ Problem Statistics ]=============================
|                                                                             |
|  Number of variables:            50                                         |
|  Number of clauses:             218                                         |
|  Parse time:                   0.00 s                                       |
|                                                                             |
============================[ Search Statistics ]==============================
| Conflicts |          ORIGINAL         |          LEARNT          | Progress |
|           |    Vars  Clauses Literals |    Limit  Clauses Lit/Cl |          |
===============================================================================
===============================================================================
restarts              : 1
conflicts             : 74             (49072 /sec)
decisions             : 77             (0.00 % random) (51061 /sec)
propagations          : 966            (640584 /sec)
conflict literals     : 300            (18.92 % deleted)
Memory used           : 20.00 MB
CPU time              : 0.001508 s

UNSATISFIABLE
